Solving original (integer) problem with strategy gdp.hull...
--- Job model.gms Start 02/15/26 04:42:31 52.2.0 d8e408be LEX-LEG x86 64bit/Linux
--- Applying:
    /package/gams/52.2/gmsprmun.txt
--- GAMS Parameters defined
    Input /local/scratch/a/sgusev/repos/k_means/data/gams_gurobi_gdp.hull/no_mode/2026-02-15_04-42-30/original/model.gms
    Output /local/scratch/a/sgusev/repos/k_means/data/gams_gurobi_gdp.hull/no_mode/2026-02-15_04-42-30/original/output.lst
    ScrDir /local/scratch/a/sgusev/repos/k_means/data/gams_gurobi_gdp.hull/no_mode/2026-02-15_04-42-30/original/225a/
    SysDir /package/gams/52.2/
    CurDir /local/scratch/a/sgusev/repos/k_means/data/gams_gurobi_gdp.hull/no_mode/2026-02-15_04-42-30/original/
    LogOption 3
    AppendLog 1
Licensee: David Bernal / SECQUOIA Research Group         G251008+0003Ac-GEN
          Purdue University, Davidson School of Chemical EngineeringDCE4838
          225a/gamslice.dat
          5a82958a-fbca-4a23
          node:66820903 mem:995 cores:48 ipport:38793 v:2                  
          Evaluation license: Not for commercial or production use
          The time-limited license stops working on : Jun 30, 2027
System information: 48 physical cores and 995 Gb physical memory detected
GAMS 52.2.0   Copyright (C) 1987-2025 GAMS Development. All rights reserved
--- Starting compilation
--- model.gms(5407) 2 Mb
--- $echo File /local/scratch/a/sgusev/repos/k_means/data/gams_gurobi_gdp.hull/no_mode/2026-02-15_04-42-30/original/gurobi.opt
--- model.gms(7883) 3 Mb
--- Starting execution: elapsed 0:00:00.026
--- model.gms(5416) 4 Mb
--- Generating MINLP model GAMS_MODEL
--- model.gms(5420) 6 Mb
---   1,654 rows  756 columns  3,997 non-zeroes
---   3,480 nl-code  420 nl-non-zeroes
---   60 discrete-columns
--- Range statistics (absolute non-zero finite values)
--- RHS       [min, max] : [ 7.511E-05, 1.000E+00] - Zero values observed as well
--- Bound     [min, max] : [ 1.000E+00, 1.500E+02] - Zero values observed as well
--- Matrix    [min, max] : [ 5.724E-02, 1.500E+02]
--- model.gms(5420) 4 Mb
--- Executing GUROBI (Solvelink=5): elapsed 0:00:00.034
Reading parameter(s) from "/local/scratch/a/sgusev/repos/k_means/data/gams_gurobi_gdp.hull/no_mode/2026-02-15_04-42-30/original/gurobi.opt"
>>  NonConvex 2
>>  Threads 1
>>  MIPGap 1e-06
>>  MIPGapAbs 1e-10
>>  FeasibilityTol 1e-06
>>  OptimalityTol 1e-06
>>  IntFeasTol 1e-05
Finished reading from "/local/scratch/a/sgusev/repos/k_means/data/gams_gurobi_gdp.hull/no_mode/2026-02-15_04-42-30/original/gurobi.opt"

... GRB_LICENSE_FILE = /local/scratch/a/sgusev/gurobi.lic

    Gurobi           52.2.0 d8e408be Dec 8, 2025           LEG x86 64bit/Linux    

... GAMS/Gurobi Link license.
... GMO Q Extraction (ThreePass): 0.00s

    Gurobi Optimizer version 13.0.0 build v13.0.0rc1 (linux64 - "Oracle Linux Server 9.7")
    
    CPU model: AMD EPYC 7643 48-Core Processor, instruction set [SSE2|AVX|AVX2]
    Thread count: 48 physical cores, 96 logical processors, using up to 1 threads
    
    Non-default parameters:
    TimeLimit  300
    MIPGap  1e-06
    LogToConsole  0
    NonConvex  2
    Threads  1
    
    Optimize a model with 1653 rows, 815 columns and 3621 nonzeros (Min)
    Model fingerprint: 0xffa3bd21
    Model has 15 linear objective coefficients
    Model has 60 general nonlinear constraints (720 nonlinear terms)
    Variable types: 755 continuous, 60 integer (0 binary)
    Coefficient statistics:
      Matrix range     [1e+00, 2e+02]
      Objective range  [1e+00, 1e+00]
      Bounds range     [1e+00, 2e+02]
      RHS range        [1e+00, 1e+00]
      NLCon coe range  [8e-05, 1e+00]
    Presolve model has 60 nlconstr
    Added 1500 variables to disaggregate expressions
    Presolve removed 360 rows and 315 columns
    Presolve time: 0.01s
    Presolved: 4713 rows, 2001 columns, 12006 nonzeros
    Presolved model has 720 bilinear constraint(s)
    
    Solving non-convex MIQCP to global optimality
    
    Variable types: 1941 continuous, 60 integer (60 binary)
    Found heuristic solution: objective 24.8082605
    
    Root relaxation: objective 0.000000e+00, 1584 iterations, 0.00 seconds (0.00 work units)
    
        Nodes    |    Current Node    |     Objective Bounds      |     Work
     Expl Unexpl |  Obj  Depth IntInf | Incumbent    BestBd   Gap | It/Node Time
    
         0     0    0.00000    0  660   24.80826    0.00000   100%     -    0s
         0     0    0.00000    0  696   24.80826    0.00000   100%     -    0s
         0     0    0.00000    0  623   24.80826    0.00000   100%     -    0s
         0     0    0.00000    0 1330   24.80826    0.00000   100%     -    0s
         0     0    0.00000    0  734   24.80826    0.00000   100%     -    0s
         0     0    0.00000    0  451   24.80826    0.00000   100%     -    0s
         0     0    0.00000    0  451   24.80826    0.00000   100%     -    0s
         0     0    0.00000    0  253   24.80826    0.00000   100%     -    0s
         0     0    0.00000    0  320   24.80826    0.00000   100%     -    0s
         0     0    0.00000    0  533   24.80826    0.00000   100%     -    0s
         0     0    0.00000    0  383   24.80826    0.00000   100%     -    0s
         0     0    0.00000    0  383   24.80826    0.00000   100%     -    0s
         0     0    0.00000    0  290   24.80826    0.00000   100%     -    0s
    H    0     0                      24.5369105    0.00000   100%     -    0s
    H    0     0                      23.9260959    0.00000   100%     -    0s
    H    0     0                      21.5508578    0.00000   100%     -    0s
         0     0    0.00000    0  247   21.55086    0.00000   100%     -    0s
         0     0    0.00000    0  247   21.55086    0.00000   100%     -    0s
         0     0    0.00000    0  198   21.55086    0.00000   100%     -    0s
         0     0    0.00000    0  204   21.55086    0.00000   100%     -    0s
         0     0    0.00000    0  197   21.55086    0.00000   100%     -    0s
         0     0    0.00000    0  197   21.55086    0.00000   100%     -    0s
         0     0    0.00000    0  161   21.55086    0.00000   100%     -    0s
         0     0    0.00000    0  181   21.55086    0.00000   100%     -    0s
         0     0    0.00000    0  182   21.55086    0.00000   100%     -    0s
         0     0    0.00000    0  154   21.55086    0.00000   100%     -    0s
         0     0    0.00000    0  154   21.55086    0.00000   100%     -    0s
         0     0    0.00000    0  154   21.55086    0.00000   100%     -    0s
    H    0     0                      16.6016758    0.00000   100%     -    0s
    H    0     0                      16.4770459    0.00000   100%     -    0s
    H    0     0                      16.0460280    0.00000   100%     -    0s
         0     2    0.00000    0  154   16.04603    0.00000   100%     -    0s
    H    1     1                      16.0383402    0.00000   100%   0.0    0s
    H    1     1                      16.0240868    0.00000   100%   0.0    0s
    H    1     1                      16.0237544    0.00000   100%   0.0    0s
    H    1     1                      16.0237180    0.00000   100%   0.0    0s
    H    3     3                      15.4809642    0.00000   100%  32.7    1s
    H    6     6                      14.6815637    0.00000   100%  52.5    1s
    H   19    19                      14.6815631    0.00000   100%  54.1    1s
    H  125   122                      14.6815631    0.00000   100%  21.8    2s
    H  147   144                      14.6815629    0.00000   100%  18.9    2s
    H  261   194                      13.5751404    0.00000   100%  17.4    2s
    H  352   262                      13.5751387    0.00000   100%  14.1    4s
    H  352   262                      13.5751385    0.00000   100%  14.1    4s
    H  379   261                      12.9651826    0.00000   100%  16.7    4s
    H  379   261                      12.9650797    0.00000   100%  16.7    4s
    H  390   272                      12.9501951    0.00000   100%  16.9    4s
    H  390   272                      12.9388600    0.00000   100%  16.9    4s
    H  390   272                      12.9382887    0.00000   100%  16.9    4s
    H  398   279                      12.9382862    0.00000   100%  16.8    4s
    H  399   280                      12.9382840    0.00000   100%  16.8    4s
    H  399   280                      12.9109304    0.00000   100%  16.8    4s
    H  399   280                      12.9104486    0.00000   100%  16.8    4s
    H  399   280                      12.9101921    0.00000   100%  16.8    4s
    H  400   281                      12.9082951    0.00000   100%  16.8    4s
    H  400   281                      12.9022090    0.00000   100%  16.8    4s
    H  401   282                      12.9011688    0.00000   100%  16.8    4s
    H  401   282                      12.9011542    0.00000   100%  16.8    4s
    H  403   284                      12.9011500    0.00000   100%  16.8    4s
    H  403   284                      12.9011448    0.00000   100%  16.8    4s
    H  410   291                      12.8973798    0.00000   100%  16.8    4s
    H  410   291                      12.8958537    0.00000   100%  16.8    4s
    H  410   291                      12.8956512    0.00000   100%  16.8    4s
    H  415   296                      12.8288306    0.00000   100%  16.8    4s
    H  415   296                      12.8170441    0.00000   100%  16.8    4s
    H  417   298                      12.8161670    0.00000   100%  16.7    4s
    H  417   298                      12.8135698    0.00000   100%  16.7    4s
    H  420   301                      12.8130194    0.00000   100%  16.7    4s
    H  420   301                      12.8130180    0.00000   100%  16.7    4s
    H  425   306                      12.8129816    0.00000   100%  16.5    4s
    H  425   306                      12.8129800    0.00000   100%  16.5    4s
    H  434   315                      12.8112466    0.00000   100%  16.3    4s
    H  434   315                      12.8112016    0.00000   100%  16.3    4s
    H  436   315                      12.7931944    0.00000   100%  16.2    4s
    H  436   315                      12.7791923    0.00000   100%  16.2    4s
    H  436   315                      12.7768447    0.00000   100%  16.2    4s
    H  436   315                      12.7743042    0.00000   100%  16.2    4s
    H  442   321                      12.7733976    0.00000   100%  16.0    4s
    H  442   321                      12.7733919    0.00000   100%  16.0    4s
    H  446   325                      12.7733705    0.00000   100%  15.9    5s
    H  446   325                      12.7733700    0.00000   100%  15.9    5s
    H  447   324                      12.6962702    0.00000   100%  15.9    5s
    H  447   324                      12.6897037    0.00000   100%  15.9    5s
    H  451   328                      12.6651042    0.00000   100%  15.8    5s
    H  451   328                      12.6564248    0.00000   100%  15.8    5s
    H  451   328                      12.6536125    0.00000   100%  15.8    5s
    H  456   333                      12.6533196    0.00000   100%  15.7    5s
    H  464   341                      12.6533110    0.00000   100%  15.4    5s
    H  477   350                      12.6533029    0.00000   100%  15.1    5s
    H  478   349                      12.6460561    0.00000   100%  15.1    5s
    H  478   349                      12.6460492    0.00000   100%  15.1    5s
    H  484   355                      12.6460491    0.00000   100%  15.0    5s
    H  491   362                      12.6460473    0.00000   100%  14.8    5s
    H  500   367                      12.6459478    0.00000   100%  14.7    5s
    H  500   367                      12.6457642    0.00000   100%  14.7    5s
    H  518   381                      12.6457631    0.00000   100%  14.3    5s
    H  587   409                      12.3649647    0.00000   100%  29.3    7s
    H  588   389                      12.3649647    0.00000   100%  29.5    7s
    H  594   374                      12.3649642    0.00000   100%  31.6    7s
    H  599   358                      12.3649625    0.00000   100%  32.3    8s
       919   537    5.41706   50  140   12.36496    0.00000   100%  35.0   10s
    H 1300   726                      12.3649625    0.00000   100%  35.2   11s
      2592  1742   11.94454  140   56   12.36496    0.00000   100%  34.4   15s
    * 3588  2487             179      12.1560984    0.00000   100%  28.1   17s
    * 3604  2485             183      12.1485442    0.00000   100%  28.0   17s
    H 3611  2484                      12.1482610    0.00000   100%  27.9   17s
    H 3611  2478                      12.1447388    0.00000   100%  27.9   17s
    H 3611  2478                      12.1445795    0.00000   100%  27.9   17s
    H 3611  2478                      12.1445795    0.00000   100%  27.9   17s
    H 3646  2495                      12.1441748    0.00000   100%  28.3   17s
    H 3667  2516                      12.1438409    0.00000   100%  28.5   18s
    H 3667  2516                      12.1437925    0.00000   100%  28.5   18s
    H 3667  2516                      12.1436487    0.00000   100%  28.5   18s
    H 3672  2521                      12.1436481    0.00000   100%  28.5   18s
    H 3672  2180                      11.8326315    0.00000   100%  28.5   18s
    H 3672  2168                      11.8290412    0.00000   100%  28.5   18s
    H 3672  2168                      11.8285055    0.00000   100%  28.5   18s
    H 3672  2160                      11.8165912    0.00000   100%  28.5   18s
    H 3773  2231                      11.8165800    0.00000   100%  28.4   18s
    H 3812  2266                      11.8165800    0.00000   100%  28.4   18s
    H 3989  2384                      11.8165729    0.00000   100%  29.7   19s
    H 3989  2384                      11.8165646    0.00000   100%  29.7   19s
    H 4250  2599                      11.8162274    0.00000   100%  29.3   19s
    H 4250  2599                      11.8161943    0.00000   100%  29.3   19s
      4258  2601    0.21610   25  200   11.81619    0.00000   100%  29.4   20s
    H 4259  2600                      11.8161936    0.00000   100%  29.4   20s
    H 4270  2611                      11.8156287    0.00000   100%  29.5   20s
    H 4270  2611                      11.8146090    0.00000   100%  29.5   20s
    H 4270  2611                      11.8146080    0.00000   100%  29.5   20s
    H 4372  2661                      11.8145306    0.00000   100%  30.1   20s
    H 4372  2661                      11.8145297    0.00000   100%  30.1   20s
    H 4565  2771                      11.8145237    0.00000   100%  30.3   21s
    H 4772  2924                      11.8145227    0.00000   100%  30.9   21s
    H 4783  2933                      11.8145210    0.00000   100%  30.9   21s
    H 4828  2964                      11.8145172    0.00000   100%  30.9   21s
    H 4828  2964                      11.8144869    0.00000   100%  30.9   21s
    H 4935  3028                      11.8144867    0.00000   100%  31.4   22s
    H 4952  3039                      11.8144769    0.00000   100%  31.4   22s
    H 5779  3563                      11.8144761    0.06805  99.4%  33.3   24s
      6326  3904     cutoff   50        11.81448    0.20626  98.3%  33.6   25s
      8793  5469    3.17610   35  155   11.81448    0.57501  95.1%  34.8   30s
    H 9526  4236                      10.0959633    0.58776  94.2%  34.8   31s
     10202  4795    3.02600   27  184   10.09596    0.61846  93.9%  33.4   35s
     12521  6054    6.93972   31  172   10.09596    1.02861  89.8%  35.6   40s
     14873  7396    3.50386   26  183   10.09596    1.20997  88.0%  37.8   45s
     17282  8733     cutoff   46        10.09596    1.45755  85.6%  39.4   50s
     19770 10086    2.29143   31  174   10.09596    1.62763  83.9%  40.5   55s
     22010 11290    6.73029   37  162   10.09596    1.71278  83.0%  41.7   60s
     24339 12545    3.50438   29  192   10.09596    1.85175  81.7%  42.4   65s
     26794 13842    8.34546   36  140   10.09596    1.96626  80.5%  42.8   70s
     29359 15225    5.43882   37  164   10.09596    2.04920  79.7%  43.1   75s
     31820 16408    7.12485   32  160   10.09596    2.15053  78.7%  43.6   80s
     34308 17700    9.67346   90   69   10.09596    2.25113  77.7%  43.4   85s
     36806 18961    7.59998   33  121   10.09596    2.35069  76.7%  43.3   90s
     39244 20179    9.22110   33  134   10.09596    2.41398  76.1%  43.5   95s
     41735 21429    8.77152   44   95   10.09596    2.47238  75.5%  43.5  100s
     44155 22571     cutoff   59        10.09596    2.55145  74.7%  43.5  105s
     46726 23744    5.00403   36  170   10.09596    2.64004  73.9%  43.4  110s
     49169 24870    7.80379   46  121   10.09596    2.69704  73.3%  43.4  115s
    H51233 25860                      10.0959615    2.71857  73.1%  43.4  119s
    H51285 25880                      10.0959614    2.71925  73.1%  43.4  119s
     51480 25978    9.79402   42  109   10.09596    2.72271  73.0%  43.4  120s
    H51714 26086                      10.0959566    2.72518  73.0%  43.4  120s
     53759 27052    8.26589   46  117   10.09596    2.77800  72.5%  43.4  125s
     56018 28094    7.48778   32  146   10.09596    2.82848  72.0%  43.4  130s
     58354 29184    8.80677   38  129   10.09596    2.87282  71.5%  43.2  135s
     60408 30149    5.66293   32  170   10.09596    2.92189  71.1%  43.2  140s
     62848 31257    9.69552   38  142   10.09596    2.97383  70.5%  43.1  145s
     65318 32309    5.79423   37  168   10.09596    3.01677  70.1%  42.9  150s
     67900 33496    9.62259   42  116   10.09596    3.08273  69.5%  42.8  155s
     70568 34710    9.43797   48  114   10.09596    3.13810  68.9%  42.7  160s
     73130 35838    4.97654   27  148   10.09596    3.17630  68.5%  42.6  165s
     75803 36996    8.11772   41  102   10.09596    3.23100  68.0%  42.5  170s
     78471 38115    4.60376   39  149   10.09596    3.28470  67.5%  42.4  175s
     81072 39199    6.64738   41  149   10.09596    3.32879  67.0%  42.3  180s
     83637 40532    5.91831   39  163   10.09596    3.34525  66.9%  42.0  185s
     86229 41643    6.62511   34  164   10.09596    3.39335  66.4%  41.9  190s
     88768 42709    8.74996   44  121   10.09596    3.42956  66.0%  41.8  195s
     91089 43704    6.74217   42  124   10.09596    3.46209  65.7%  41.7  200s
     93653 44782    8.19162   38  137   10.09596    3.49543  65.4%  41.7  205s
     96214 45766    5.25629   36  172   10.09596    3.53399  65.0%  41.6  210s
     98759 46848    9.22978   44  102   10.09596    3.56488  64.7%  41.5  215s
     101325 47862     cutoff   38        10.09596    3.60661  64.3%  41.4  220s
     103951 48916    8.01996   36  156   10.09596    3.64136  63.9%  41.3  225s
     106474 49977    7.67671   38  158   10.09596    3.67397  63.6%  41.2  230s
     108811 50925    6.96521   43  158   10.09596    3.70222  63.3%  41.1  235s
     111428 51943    4.80571   31  189   10.09596    3.73231  63.0%  41.1  240s
     114049 52906    7.51419   36  130   10.09596    3.76535  62.7%  41.0  245s
     116661 53860    5.57724   26  159   10.09596    3.79770  62.4%  40.9  250s
     119306 54808     cutoff   39        10.09596    3.82535  62.1%  40.7  255s
     121866 55760    7.53085   33  143   10.09596    3.85714  61.8%  40.6  260s
     124449 56719    7.15313   29  131   10.09596    3.87885  61.6%  40.6  265s
     127038 57714    8.14307   33  124   10.09596    3.91045  61.3%  40.5  270s
     129627 58707 infeasible   38        10.09596    3.93978  61.0%  40.4  275s
     132222 59694    8.89802   38  144   10.09596    3.96443  60.7%  40.4  280s
     134767 60651 infeasible   41        10.09596    3.99089  60.5%  40.3  285s
     137367 61596    8.70363   37  144   10.09596    4.01748  60.2%  40.2  290s
     139783 62455    7.41489   45  116   10.09596    4.04667  59.9%  40.2  295s
    
    Cutting planes:
      Learned: 135
      Gomory: 1
      Implied bound: 96
      Projected implied bound: 4
      MIR: 31
      Flow cover: 172
      Inf proof: 1
      RLT: 24
      Relax-and-lift: 30
      PSD: 4
    
    Explored 142364 nodes (5720757 simplex iterations) in 300.00 seconds (239.01 work units)
    Thread count was 1 (of 96 available processors)
    
    Solution count 10: 10.096 10.096 10.096 ... 11.8145
    
    Time limit reached
    Best objective 1.009595655741e+01, best bound 4.070951939318e+00, gap 59.6774%
    
    User-callback calls 142490, time in user-callback 0.01 sec

--- Reading solution for model GAMS_MODEL
***
*** Solver did not provide marginals for model GAMS_MODEL
***
--- Executing after solve: elapsed 0:05:00.112
--- model.gms(5423) 4 Mb
--- model.gms(7883) 6 Mb
--- Putfile results /local/scratch/a/sgusev/repos/k_means/data/gams_gurobi_gdp.hull/no_mode/2026-02-15_04-42-30/original/results.dat
--- Putfile statresults /local/scratch/a/sgusev/repos/k_means/data/gams_gurobi_gdp.hull/no_mode/2026-02-15_04-42-30/original/resultsstat.dat
*** Status: Normal completion
--- Job model.gms Stop 02/15/26 04:47:31 elapsed 0:05:00.115
Original problem solved. Time taken: 300.75913763046265 seconds
Original objective value: 10.095956557412292
